(set-logic QF_S)
(declare-fun x () String)
(declare-fun y () String)
(declare-fun z () Int)
(assert (not (= (str.replace y (str.replace y y "A") x) (str.replace x x (str.replace y "A" x)))))
(check-sat)
